BN                                      
   1.00000000000000     
     6.0750000000000002    0.0000000000000000    0.0000000000000000
     0.0000000000000000    6.3559999999999999    0.0000000000000000
     0.0000000000000000    0.0000000000000000    2.5120000000000000
   B    N 
     6     6
Direct
  0.5014367231718878  0.0732410352322731  0.2483422407296298
  0.0014344236037817  0.5732439281816770  0.2483327580556117
  0.7029915372989799  0.7802586009707315  0.7483229156211330
  0.2998655394890010  0.7802711053000680  0.7483239054913785
  0.2029917735500951  0.2802558812704249  0.7483354748529941
  0.7998797720430630  0.2802600096414573  0.7483576887183236
  0.5014339572083535  0.9254389428215398  0.7483416366135643
  0.7914825125110552  0.7118505965100658  0.2483232276615107
  0.2113711605668231  0.7118660570682410  0.2483220127321001
  0.0014386214715445  0.4254389683445601  0.7483416288794532
  0.7113833571997783  0.2118551424555727  0.2483567078936902
  0.2914831066200466  0.2118450562428037  0.2483367228224704

